files/path/star.machine.smt2

;this file is automatically generated: Fri Aug 21 14:12:58 CST 2020

;declarations generated

(declare-fun T0 () Int)
(declare-fun T1 () Int)
(declare-fun T2 () Int)
(declare-fun T3 () Int)
(declare-fun T4 () Int)
(declare-fun T5 () Int)
(declare-fun T6 () Int)
(declare-fun T7 () Int)
(declare-fun T8 () Int)

;formula(s) generated
(assert (and (>= T0 0) (<= T0 4)))
(assert (and (>= T1 0) (<= T1 4)))
(assert (and (>= T2 0) (<= T2 4)))
(assert (and (>= T3 0) (<= T3 4)))
(assert (and (>= T4 0) (<= T4 4)))
(assert (and (>= T5 0) (<= T5 4)))
(assert (and (>= T6 0) (<= T6 4)))
(assert (and (>= T7 0) (<= T7 4)))
(assert (and (>= T8 0) (<= T8 4)))
(assert (= T8 0))
(assert (and (and (and (and (and (and (and (or (or (or (and (= T0 0) (= T1 1)) (and (= T0 0) (= T1 2))) (and (= T0 0) (= T1 3))) (and (= T0 0) (= T1 4))) (or (or (or (and (= T1 1) (= T2 0)) (and (= T1 2) (= T2 0))) (and (= T1 3) (= T2 0))) (and (= T1 4) (= T2 0)))) (or (or (or (and (= T2 0) (= T3 1)) (and (= T2 0) (= T3 2))) (and (= T2 0) (= T3 3))) (and (= T2 0) (= T3 4)))) (or (or (or (and (= T3 1) (= T4 0)) (and (= T3 2) (= T4 0))) (and (= T3 3) (= T4 0))) (and (= T3 4) (= T4 0)))) (or (or (or (and (= T4 0) (= T5 1)) (and (= T4 0) (= T5 2))) (and (= T4 0) (= T5 3))) (and (= T4 0) (= T5 4)))) (or (or (or (and (= T5 1) (= T6 0)) (and (= T5 2) (= T6 0))) (and (= T5 3) (= T6 0))) (and (= T5 4) (= T6 0)))) (or (or (or (and (= T6 0) (= T7 1)) (and (= T6 0) (= T7 2))) (and (= T6 0) (= T7 3))) (and (= T6 0) (= T7 4)))) (or (or (or (and (= T7 1) (= T8 0)) (and (= T7 2) (= T8 0))) (and (= T7 3) (= T8 0))) (and (= T7 4) (= T8 0)))))

 ;end of formula 